p cnf 204 525
a 28 29 68 77 2 4 10 12 117 131 18 20 27 50 36 58 1 9 17 26 35 41 48 56 0
d 42 68 77 0
d 116 10 12 0
d 109 1 9 0
d 183 35 41 0
d 163 17 26 0
d 195 48 56 0
d 3 2 0
d 5 4 0
d 6 2 4 0
d 7 1 2 4 0
d 8 1 2 4 0
d 11 10 0
d 13 10 12 0
d 14 9 10 12 0
d 15 9 10 12 0
d 16 1 2 4 9 10 12 0
d 19 18 0
d 21 20 0
d 22 18 20 0
d 23 17 18 20 0
d 24 17 18 20 0
d 25 1 2 4 9 10 12 17 18 20 0
d 30 28 29 0
d 31 27 28 29 0
d 32 26 27 28 29 0
d 33 26 27 28 29 0
d 34 1 2 4 9 10 12 17 18 20 26 27 28 29 0
d 37 36 28 29 0
d 38 35 36 28 29 0
d 39 35 36 28 29 0
d 40 1 2 4 9 10 12 17 18 20 26 27 28 29 35 36 0
d 43 68 77 2 0
d 44 68 77 2 4 0
d 45 41 68 77 2 4 0
d 46 41 68 77 2 4 0
d 47 1 2 4 9 10 12 17 18 20 26 27 28 29 35 36 41 68 77 0
d 49 27 0
d 51 50 0
d 52 27 50 0
d 53 48 27 50 0
d 54 48 27 50 0
d 55 1 2 4 9 10 12 17 18 20 26 27 28 29 35 36 41 68 77 48 50 0
d 57 36 0
d 59 36 58 0
d 60 56 36 58 0
d 61 56 36 58 0
d 62 1 2 4 9 10 12 17 18 20 26 27 28 29 35 36 41 68 77 48 50 56 58 0
d 63 28 0
d 64 28 0
d 65 28 29 0
d 66 28 29 0
d 67 28 29 0
d 69 68 28 29 0
d 70 68 28 0
d 71 29 0
d 72 68 28 29 0
d 73 68 28 29 0
d 74 28 29 68 0
d 75 68 0
d 76 28 29 68 0
d 78 28 29 68 77 0
d 79 28 29 0
d 80 28 29 68 0
d 81 28 29 68 77 0
d 82 28 29 68 77 0
d 83 28 29 68 77 0
d 84 2 28 29 0
d 85 68 77 2 28 29 0
d 86 77 0
d 87 68 77 0
d 88 2 28 0
d 89 2 28 29 0
d 90 68 77 2 28 29 0
d 91 68 77 2 28 29 0
d 92 28 29 68 77 2 0
d 93 2 4 0
d 94 28 29 68 77 0
d 95 2 4 28 29 68 77 0
d 96 28 29 68 77 0
d 97 2 4 28 29 68 77 0
d 98 2 4 28 29 68 77 0
d 99 28 29 68 77 2 4 0
d 100 10 28 29 0
d 101 10 28 29 68 77 2 4 0
d 102 10 28 0
d 103 10 28 29 0
d 104 68 77 2 0
d 105 68 77 2 4 0
d 106 10 28 29 68 77 2 4 0
d 107 10 28 29 68 77 2 4 0
d 108 28 29 68 77 2 4 10 0
d 110 28 29 68 77 1 9 0
d 111 2 4 10 0
d 112 2 4 10 12 0
d 113 28 29 68 77 2 4 10 12 0
d 114 28 29 68 77 1 9 2 4 10 12 0
d 115 28 29 68 77 2 4 10 1 9 12 0
d 118 117 28 29 0
d 119 10 12 117 28 29 0
d 120 68 77 2 4 10 12 117 28 29 0
d 121 12 0
d 122 10 12 0
d 123 117 28 0
d 124 117 28 29 0
d 125 10 12 117 28 29 0
d 126 68 77 2 4 10 12 117 28 29 0
d 127 68 77 2 4 10 12 117 28 29 0
d 128 28 29 68 77 2 4 10 1 9 12 117 0
d 129 2 4 10 12 0
d 130 117 0
d 132 117 131 0
d 133 117 131 28 29 68 77 0
d 134 2 4 10 12 117 131 28 29 68 77 0
d 135 2 4 10 12 0
d 136 117 131 28 29 68 77 0
d 137 2 4 10 12 117 131 28 29 68 77 0
d 138 2 4 10 12 117 131 28 29 68 77 0
d 139 28 29 68 77 2 4 10 1 9 12 117 131 0
d 140 10 12 117 0
d 141 131 0
d 142 10 12 117 131 0
d 143 18 28 29 0
d 144 18 28 29 68 77 2 4 0
d 145 10 12 117 131 18 28 29 68 77 2 4 0
d 146 10 12 117 0
d 147 10 12 117 131 0
d 148 18 28 0
d 149 18 28 29 0
d 150 18 28 29 68 77 2 4 0
d 151 10 12 117 131 18 28 29 68 77 2 4 0
d 152 10 12 117 131 18 28 29 68 77 2 4 0
d 153 28 29 68 77 2 4 10 1 9 12 117 131 18 0
d 154 117 131 0
d 155 117 131 18 0
d 156 117 131 18 20 0
d 157 28 29 68 77 2 4 10 12 0
d 158 117 131 18 20 28 29 68 77 2 4 10 12 0
d 159 28 29 68 77 2 4 10 12 0
d 160 117 131 18 20 28 29 68 77 2 4 10 12 0
d 161 117 131 18 20 28 29 68 77 2 4 10 12 0
d 162 28 29 68 77 2 4 10 1 9 12 117 131 18 20 0
d 164 68 77 2 4 10 12 117 131 0
d 165 17 26 68 77 2 4 10 12 117 131 0
d 166 27 28 0
d 167 27 28 29 0
d 168 18 20 27 28 29 0
d 169 68 77 2 4 10 12 117 131 0
d 170 18 20 27 28 29 68 77 2 4 10 12 117 131 0
d 171 17 26 68 77 2 4 10 12 117 131 18 20 27 28 29 0
d 172 28 29 68 77 2 4 10 1 9 12 117 131 18 20 17 26 27 0
d 173 27 50 0
d 174 27 50 28 29 68 77 0
d 175 117 131 18 20 0
d 176 2 4 10 12 117 131 18 20 0
d 177 27 50 28 29 68 77 2 4 10 12 117 131 18 20 0
d 178 27 50 28 29 68 77 0
d 179 2 4 10 12 117 131 18 20 0
d 180 27 50 28 29 68 77 2 4 10 12 117 131 18 20 0
d 181 27 50 28 29 68 77 2 4 10 12 117 131 18 20 0
d 182 28 29 68 77 2 4 10 1 9 12 117 131 18 20 17 26 27 50 0
d 184 18 20 27 0
d 185 18 20 27 50 0
d 186 10 12 117 131 18 20 27 50 0
d 187 35 41 10 12 117 131 18 20 27 50 0
d 188 36 28 0
d 189 36 28 29 0
d 190 36 28 29 68 77 2 4 0
d 191 10 12 117 131 18 20 27 50 0
d 192 36 28 29 68 77 2 4 10 12 117 131 18 20 27 50 0
d 193 35 41 10 12 117 131 18 20 27 50 36 28 29 68 77 2 4 0
d 194 28 29 68 77 2 4 10 1 9 12 117 131 18 20 17 26 27 50 35 41 36 0
d 196 117 131 18 20 48 56 0
d 197 28 29 68 77 2 4 10 12 117 131 18 20 48 56 0
d 198 27 50 36 0
d 199 27 50 36 58 0
d 200 117 131 18 20 27 50 36 58 0
d 201 28 29 68 77 2 4 10 12 117 131 18 20 27 50 36 58 0
d 202 28 29 68 77 2 4 10 12 117 131 18 20 48 56 27 50 36 58 0
d 203 28 29 68 77 2 4 10 1 9 12 117 131 18 20 17 26 27 50 35 41 36 48 56 58 0
d 204 1 2 4 9 10 12 17 18 20 26 27 28 29 35 36 41 68 77 48 50 56 58 117 131 0
3 2 0
-3 -2 0
5 4 0
-5 -4 0
-6 3 0
-6 5 0
6 -3 -5 0
7 -1 -6 0
7 1 6 0
-7 -1 6 0
-7 1 -6 0
8 7 0
-8 -7 0
11 10 0
-11 -10 0
-13 11 0
-13 12 0
13 -11 -12 0
14 -9 -13 0
14 9 13 0
-14 -9 13 0
-14 9 -13 0
15 14 0
-15 -14 0
16 -8 0
16 -15 0
-16 8 15 0
19 18 0
-19 -18 0
21 20 0
-21 -20 0
-22 19 0
-22 21 0
22 -19 -21 0
23 -17 -22 0
23 17 22 0
-23 -17 22 0
-23 17 -22 0
24 23 0
-24 -23 0
25 -16 0
25 -24 0
-25 16 24 0
30 -28 29 0
30 28 -29 0
-30 -28 -29 0
-30 28 29 0
-31 27 0
-31 30 0
31 -27 -30 0
32 -26 -31 0
32 26 31 0
-32 -26 31 0
-32 26 -31 0
33 32 0
-33 -32 0
34 -25 0
34 -33 0
-34 25 33 0
-37 36 0
-37 30 0
37 -36 -30 0
38 -35 -37 0
38 35 37 0
-38 -35 37 0
-38 35 -37 0
39 38 0
-39 -38 0
40 -34 0
40 -39 0
-40 34 39 0
-43 42 0
-43 3 0
43 -42 -3 0
-44 43 0
-44 5 0
44 -43 -5 0
45 -41 -44 0
45 41 44 0
-45 -41 44 0
-45 41 -44 0
46 45 0
-46 -45 0
47 -40 0
47 -46 0
-47 40 46 0
49 27 0
-49 -27 0
51 50 0
-51 -50 0
-52 49 0
-52 51 0
52 -49 -51 0
53 -48 -52 0
53 48 52 0
-53 -48 52 0
-53 48 -52 0
54 53 0
-54 -53 0
55 -47 0
55 -54 0
-55 47 54 0
57 36 0
-57 -36 0
-59 57 0
-59 58 0
59 -57 -58 0
60 -56 -59 0
60 56 59 0
-60 -56 59 0
-60 56 -59 0
61 60 0
-61 -60 0
62 -55 0
62 -61 0
-62 55 61 0
63 -28 -28 0
63 28 28 0
-63 -28 28 0
-63 28 -28 0
64 28 0
-64 -28 0
-65 64 0
-65 29 0
65 -64 -29 0
66 -65 -65 0
66 65 65 0
-66 -65 65 0
-66 65 -65 0
-67 63 0
-67 66 0
67 -63 -66 0
-69 68 0
-69 30 0
69 -68 -30 0
-70 68 0
-70 64 0
70 -68 -64 0
71 29 0
-71 -29 0
-72 70 0
-72 71 0
72 -70 -71 0
73 -69 -72 0
73 69 72 0
-73 -69 72 0
-73 69 -72 0
-74 67 0
-74 73 0
74 -67 -73 0
75 68 0
-75 -68 0
-76 30 0
-76 75 0
76 -30 -75 0
-78 76 0
-78 77 0
78 -76 -77 0
-79 64 0
-79 71 0
79 -64 -71 0
-80 79 0
-80 75 0
80 -79 -75 0
-81 80 0
-81 77 0
81 -80 -77 0
82 -78 -81 0
82 78 81 0
-82 -78 81 0
-82 78 -81 0
-83 74 0
-83 82 0
83 -74 -82 0
-84 2 0
-84 30 0
84 -2 -30 0
-85 42 0
-85 84 0
85 -42 -84 0
86 77 0
-86 -77 0
-87 75 0
-87 86 0
87 -75 -86 0
-88 2 0
-88 64 0
88 -2 -64 0
-89 88 0
-89 71 0
89 -88 -71 0
-90 87 0
-90 89 0
90 -87 -89 0
91 -85 -90 0
91 85 90 0
-91 -85 90 0
-91 85 -90 0
-92 83 0
-92 91 0
92 -83 -91 0
-93 3 0
-93 4 0
93 -3 -4 0
-94 30 0
-94 42 0
94 -30 -42 0
-95 93 0
-95 94 0
95 -93 -94 0
-96 80 0
-96 86 0
96 -80 -86 0
-97 93 0
-97 96 0
97 -93 -96 0
98 -95 -97 0
98 95 97 0
-98 -95 97 0
-98 95 -97 0
-99 92 0
-99 98 0
99 -92 -98 0
-100 10 0
-100 30 0
100 -10 -30 0
-101 100 0
-101 44 0
101 -100 -44 0
-102 10 0
-102 64 0
102 -10 -64 0
-103 102 0
-103 71 0
103 -102 -71 0
-104 87 0
-104 3 0
104 -87 -3 0
-105 104 0
-105 5 0
105 -104 -5 0
-106 103 0
-106 105 0
106 -103 -105 0
107 -101 -106 0
107 101 106 0
-107 -101 106 0
-107 101 -106 0
-108 99 0
-108 107 0
108 -99 -107 0
-110 94 0
-110 109 0
110 -94 -109 0
-111 6 0
-111 11 0
111 -6 -11 0
-112 111 0
-112 12 0
112 -111 -12 0
-113 96 0
-113 112 0
113 -96 -112 0
114 -110 -113 0
114 110 113 0
-114 -110 113 0
-114 110 -113 0
-115 108 0
-115 114 0
115 -108 -114 0
-118 117 0
-118 30 0
118 -117 -30 0
-119 116 0
-119 118 0
119 -116 -118 0
-120 44 0
-120 119 0
120 -44 -119 0
121 12 0
-121 -12 0
-122 11 0
-122 121 0
122 -11 -121 0
-123 117 0
-123 64 0
123 -117 -64 0
-124 123 0
-124 71 0
124 -123 -71 0
-125 122 0
-125 124 0
125 -122 -124 0
-126 105 0
-126 125 0
126 -105 -125 0
127 -120 -126 0
127 120 126 0
-127 -120 126 0
-127 120 -126 0
-128 115 0
-128 127 0
128 -115 -127 0
-129 6 0
-129 116 0
129 -6 -116 0
130 117 0
-130 -117 0
-132 130 0
-132 131 0
132 -130 -131 0
-133 132 0
-133 94 0
133 -132 -94 0
-134 129 0
-134 133 0
134 -129 -133 0
-135 111 0
-135 121 0
135 -111 -121 0
-136 132 0
-136 96 0
136 -132 -96 0
-137 135 0
-137 136 0
137 -135 -136 0
138 -134 -137 0
138 134 137 0
-138 -134 137 0
-138 134 -137 0
-139 128 0
-139 138 0
139 -128 -138 0
-140 116 0
-140 130 0
140 -116 -130 0
141 131 0
-141 -131 0
-142 140 0
-142 141 0
142 -140 -141 0
-143 18 0
-143 30 0
143 -18 -30 0
-144 143 0
-144 44 0
144 -143 -44 0
-145 142 0
-145 144 0
145 -142 -144 0
-146 122 0
-146 130 0
146 -122 -130 0
-147 146 0
-147 141 0
147 -146 -141 0
-148 18 0
-148 64 0
148 -18 -64 0
-149 148 0
-149 71 0
149 -148 -71 0
-150 149 0
-150 105 0
150 -149 -105 0
-151 147 0
-151 150 0
151 -147 -150 0
152 -145 -151 0
152 145 151 0
-152 -145 151 0
-152 145 -151 0
-153 139 0
-153 152 0
153 -139 -152 0
-154 130 0
-154 141 0
154 -130 -141 0
-155 154 0
-155 19 0
155 -154 -19 0
-156 155 0
-156 20 0
156 -155 -20 0
-157 94 0
-157 129 0
157 -94 -129 0
-158 156 0
-158 157 0
158 -156 -157 0
-159 96 0
-159 135 0
159 -96 -135 0
-160 156 0
-160 159 0
160 -156 -159 0
161 -158 -160 0
161 158 160 0
-161 -158 160 0
-161 158 -160 0
-162 153 0
-162 161 0
162 -153 -161 0
-164 44 0
-164 142 0
164 -44 -142 0
-165 163 0
-165 164 0
165 -163 -164 0
-166 27 0
-166 64 0
166 -27 -64 0
-167 166 0
-167 71 0
167 -166 -71 0
-168 22 0
-168 167 0
168 -22 -167 0
-169 105 0
-169 147 0
169 -105 -147 0
-170 168 0
-170 169 0
170 -168 -169 0
171 -165 -170 0
171 165 170 0
-171 -165 170 0
-171 165 -170 0
-172 162 0
-172 171 0
172 -162 -171 0
-173 49 0
-173 50 0
173 -49 -50 0
-174 173 0
-174 94 0
174 -173 -94 0
-175 155 0
-175 21 0
175 -155 -21 0
-176 129 0
-176 175 0
176 -129 -175 0
-177 174 0
-177 176 0
177 -174 -176 0
-178 173 0
-178 96 0
178 -173 -96 0
-179 135 0
-179 175 0
179 -135 -175 0
-180 178 0
-180 179 0
180 -178 -179 0
181 -177 -180 0
181 177 180 0
-181 -177 180 0
-181 177 -180 0
-182 172 0
-182 181 0
182 -172 -181 0
-184 22 0
-184 49 0
184 -22 -49 0
-185 184 0
-185 51 0
185 -184 -51 0
-186 142 0
-186 185 0
186 -142 -185 0
-187 183 0
-187 186 0
187 -183 -186 0
-188 36 0
-188 64 0
188 -36 -64 0
-189 188 0
-189 71 0
189 -188 -71 0
-190 189 0
-190 105 0
190 -189 -105 0
-191 147 0
-191 185 0
191 -147 -185 0
-192 190 0
-192 191 0
192 -190 -191 0
193 -187 -192 0
193 187 192 0
-193 -187 192 0
-193 187 -192 0
-194 182 0
-194 193 0
194 -182 -193 0
-196 175 0
-196 195 0
196 -175 -195 0
-197 157 0
-197 196 0
197 -157 -196 0
-198 52 0
-198 57 0
198 -52 -57 0
-199 198 0
-199 58 0
199 -198 -58 0
-200 175 0
-200 199 0
200 -175 -199 0
-201 159 0
-201 200 0
201 -159 -200 0
202 -197 -201 0
202 197 201 0
-202 -197 201 0
-202 197 -201 0
-203 194 0
-203 202 0
203 -194 -202 0
204 -62 0
204 -203 0
-204 62 203 0
204 0
